(set-logic ALL)
(set-option :produce-models true)
(declare-sort BoundSet 0)
(declare-sort UnboundSet 0)
(declare-fun IsInDress (BoundSet) Bool)
(declare-fun HasBrownHair (BoundSet) Bool)
(declare-fun HasSomethingelse (BoundSet) Bool)
(declare-fun IsCarries (BoundSet BoundSet) Bool)
(assert (not (=> (and (exists ((b BoundSet)) (exists ((a BoundSet)) (and (IsInDress a) (HasBrownHair b)))) (forall ((e BoundSet)) (=> (HasBrownHair e) (HasSomethingelse e)))) (exists ((b BoundSet)) (exists ((c BoundSet)) (exists ((a BoundSet)) (and (IsCarries a c) (HasSomethingelse b))))))))
(check-sat)
(get-model)